(declare-fun temp5235_1 () (_ BitVec 64))
(declare-fun temp5235_2 () (_ BitVec 64))
(declare-fun var77740 () (_ BitVec 64))
(declare-fun k!0 () Bool)
(declare-fun ARGNAME_filter_NAMEEND_DIM () (_ BitVec 64))
(declare-fun ARGNAME_data_format_NAMEEND_STRFMT () (_ BitVec 64))
(declare-fun temp5235_3 () (_ BitVec 64))
(declare-fun ARGNAME_out_backprop_NAMEEND_DIM () (_ BitVec 64))
(declare-fun var77770 () (_ BitVec 64))
(declare-fun temp5235_4 () (_ BitVec 64))
(declare-fun temp5235_5 () (_ BitVec 64))
(declare-fun ARGNAME_filter_NAMEEND_DIMSIZE
             ()
             (Array (_ BitVec 64) (_ BitVec 64)))
(declare-fun temp5235_6 () (_ BitVec 64))
(declare-fun temp5235_7 () (_ BitVec 64))
(declare-fun temp5235_8 () (_ BitVec 64))
(declare-fun temp5235_9 () (_ BitVec 64))
(declare-fun temp5235_10 () (_ BitVec 64))
(declare-fun temp5235_11 () (_ BitVec 64))
(declare-fun temp5235_12 () (_ BitVec 64))
(declare-fun temp5235_13 () (_ BitVec 64))
(declare-fun temp5235_14 () (_ BitVec 64))
(declare-fun temp5235_15 () (_ BitVec 64))
(declare-fun temp5235_16 () (_ BitVec 64))
(declare-fun temp5235_17 () (_ BitVec 64))
(declare-fun temp5235_18 () (_ BitVec 64))
(declare-fun var77799 () (_ BitVec 64))
(declare-fun temp5235_19 () (_ BitVec 64))
(declare-fun ARGNAME_out_backprop_NAMEEND_DIMSIZE
             ()
             (Array (_ BitVec 64) (_ BitVec 64)))
(declare-fun temp5235_20 () (_ BitVec 64))
(declare-fun temp5235_21 () (_ BitVec 64))
(declare-fun temp5235_22 () (_ BitVec 64))
(declare-fun temp5235_23 () (_ BitVec 64))
(declare-fun temp5235_24 () (_ BitVec 64))
(declare-fun temp5235_25 () (_ BitVec 64))
(declare-fun temp5235_26 () (_ BitVec 64))
(declare-fun temp5235_27 () (_ BitVec 64))
(declare-fun temp5235_28 () (_ BitVec 64))
(declare-fun temp5235_29 () (_ BitVec 64))
(declare-fun temp5235_30 () (_ BitVec 64))
(declare-fun temp5235_31 () (_ BitVec 64))
(declare-fun temp5235_32 () (_ BitVec 64))
(declare-fun var77832 () (_ BitVec 64))
(declare-fun temp5235_33 () (_ BitVec 64))
(declare-fun temp5235_34 () (_ BitVec 64))
(declare-fun var77833 () (_ BitVec 64))
(declare-fun var77834 () (_ BitVec 64))
(declare-fun temp5235_35 () (_ BitVec 64))
(declare-fun temp5235_36 () (_ BitVec 64))
(declare-fun var275510 () (_ BitVec 64))
(declare-fun temp5235_37 () (_ BitVec 64))
(declare-fun var275528 () (_ BitVec 64))
(declare-fun temp5235_38 () (_ BitVec 64))
(declare-fun temp5235_39 () (_ BitVec 64))
(declare-fun var406582 () (_ BitVec 64))
(declare-fun temp5235_40 () (_ BitVec 64))
(declare-fun var406600 () (_ BitVec 64))
(declare-fun temp5235_41 () (_ BitVec 64))
(declare-fun temp5235_42 () (_ BitVec 64))
(declare-fun var537654 () (_ BitVec 64))
(declare-fun temp5235_43 () (_ BitVec 64))
(declare-fun var537672 () (_ BitVec 64))
(declare-fun temp5235_44 () (_ BitVec 64))
(declare-fun temp5235_46 () (_ BitVec 64))
(declare-fun temp5235_45 () (_ BitVec 64))
(declare-fun temp5235_48 () (_ BitVec 64))
(declare-fun temp5235_47 () (_ BitVec 64))
(declare-fun temp5235_50 () (_ BitVec 64))
(declare-fun temp5235_49 () (_ BitVec 64))
(declare-fun temp5235_51 () (_ BitVec 64))
(declare-fun var730187 () (_ BitVec 64))
(declare-fun var730166 () (_ BitVec 64))
(declare-fun var664598 () (_ BitVec 64))
(declare-fun temp5235_52 () (_ BitVec 64))
(declare-fun temp5235_53 () (_ BitVec 64))
(declare-fun var861259 () (_ BitVec 64))
(declare-fun var861238 () (_ BitVec 64))
(declare-fun var664611 () (_ BitVec 64))
(declare-fun temp5235_54 () (_ BitVec 64))
(declare-fun temp5235_55 () (_ BitVec 64))
(declare-fun var1057842 () (_ BitVec 64))
(declare-fun temp5235_56 () (_ BitVec 64))
(declare-fun var1123378 () (_ BitVec 64))
(declare-fun temp5235_57 () (_ BitVec 64))
(declare-fun var1188914 () (_ BitVec 64))
(declare-fun temp5235_58 () (_ BitVec 64))
(declare-fun var78184 () (_ BitVec 64))
(declare-fun temp5235_60 () (_ BitVec 64))
(declare-fun temp5235_59 () (_ BitVec 64))
(declare-fun temp5235_62 () (_ BitVec 64))
(declare-fun temp5235_61 () (_ BitVec 64))
(assert (or (= ARGNAME_data_format_NAMEEND_STRFMT #x0000000000000000)
    (= ARGNAME_data_format_NAMEEND_STRFMT #x0000000000000001)
    (= ARGNAME_data_format_NAMEEND_STRFMT #x0000000000000002)
    (= ARGNAME_data_format_NAMEEND_STRFMT #x0000000000000003)
    (= ARGNAME_data_format_NAMEEND_STRFMT #x0000000000000004)
    (= ARGNAME_data_format_NAMEEND_STRFMT #x0000000000000005)))
(assert (= temp5235_1 #x0000000000000005))
(assert (= var77740
   (ite (= ARGNAME_filter_NAMEEND_DIM temp5235_1)
        #x0000000000000001
        #x0000000000000000)))
(assert (= temp5235_2 #x0000000000000001))
(assert (= var77740 temp5235_2))
(assert (= temp5235_3 #x0000000000000005))
(assert (= var77770
   (ite (= ARGNAME_out_backprop_NAMEEND_DIM temp5235_3)
        #x0000000000000001
        #x0000000000000000)))
(assert (= temp5235_4 #x0000000000000001))
(assert (= var77770 temp5235_4))
(assert (= temp5235_5 #x0000000000000000))
(assert (= temp5235_6 (select ARGNAME_filter_NAMEEND_DIMSIZE temp5235_5)))
(assert (= temp5235_7 #x0000000000000001))
(assert (= temp5235_8 (select ARGNAME_filter_NAMEEND_DIMSIZE temp5235_7)))
(assert (= temp5235_9 #x0000000000000002))
(assert (= temp5235_10 (select ARGNAME_filter_NAMEEND_DIMSIZE temp5235_9)))
(assert (= temp5235_11 #x0000000000000003))
(assert (= temp5235_12 (select ARGNAME_filter_NAMEEND_DIMSIZE temp5235_11)))
(assert (= temp5235_13 #x0000000000000004))
(assert (= temp5235_14 (select ARGNAME_filter_NAMEEND_DIMSIZE temp5235_13)))
(assert (= temp5235_15 #x0000000000000005))
(assert (= temp5235_16 (select ARGNAME_filter_NAMEEND_DIMSIZE temp5235_15)))
(assert (= temp5235_17 #x0000000000000003))
(assert (= temp5235_18 (select ARGNAME_filter_NAMEEND_DIMSIZE temp5235_17)))
(assert (= var77799 temp5235_18))
(assert (= temp5235_19 #x0000000000000000))
(assert (= temp5235_20 (select ARGNAME_out_backprop_NAMEEND_DIMSIZE temp5235_19)))
(assert (= temp5235_21 #x0000000000000001))
(assert (= temp5235_22 (select ARGNAME_out_backprop_NAMEEND_DIMSIZE temp5235_21)))
(assert (= temp5235_23 #x0000000000000002))
(assert (= temp5235_24 (select ARGNAME_out_backprop_NAMEEND_DIMSIZE temp5235_23)))
(assert (= temp5235_25 #x0000000000000003))
(assert (= temp5235_26 (select ARGNAME_out_backprop_NAMEEND_DIMSIZE temp5235_25)))
(assert (= temp5235_27 #x0000000000000004))
(assert (= temp5235_28 (select ARGNAME_out_backprop_NAMEEND_DIMSIZE temp5235_27)))
(assert (= temp5235_29 #x0000000000000005))
(assert (= temp5235_30 (select ARGNAME_out_backprop_NAMEEND_DIMSIZE temp5235_29)))
(assert (= temp5235_31 #x0000000000000004))
(assert (= temp5235_32 (select ARGNAME_out_backprop_NAMEEND_DIMSIZE temp5235_31)))
(assert (= var77832 temp5235_32))
(assert (= temp5235_33 #x0000000000000004))
(assert (= temp5235_34 (select ARGNAME_filter_NAMEEND_DIMSIZE temp5235_33)))
(assert (= var77833 temp5235_34))
(assert (= var77834 (ite (= var77832 var77833) #x0000000000000001 #x0000000000000000)))
(assert (= temp5235_35 #x0000000000000001))
(assert (= var77834 temp5235_35))
(assert (= temp5235_36 #x0000000000000001))
(assert (= var275510 temp5235_36))
(assert (= temp5235_37 #x0000000000000001))
(assert (= var275528
   (ite (bvslt var275510 temp5235_37) #x0000000000000001 #x0000000000000000)))
(assert (= temp5235_38 #x0000000000000000))
(assert (= var275528 temp5235_38))
(assert (= temp5235_39 #x0000000000000001))
(assert (= var406582 temp5235_39))
(assert (= temp5235_40 #x0000000000000001))
(assert (= var406600
   (ite (bvslt var406582 temp5235_40) #x0000000000000001 #x0000000000000000)))
(assert (= temp5235_41 #x0000000000000000))
(assert (= var406600 temp5235_41))
(assert (= temp5235_42 #x0000000000000001))
(assert (= var537654 temp5235_42))
(assert (= temp5235_43 #x0000000000000001))
(assert (= var537672
   (ite (bvslt var537654 temp5235_43) #x0000000000000001 #x0000000000000000)))
(assert (= temp5235_44 #x0000000000000000))
(assert (= var537672 temp5235_44))
(assert (= temp5235_46 #x00000000000000ff))
(assert (= temp5235_45 temp5235_46))
(assert (= temp5235_48 #x00000000000000ff))
(assert (= temp5235_47 temp5235_48))
(assert (= temp5235_50 #x00000000000000ff))
(assert (= temp5235_49 temp5235_50))
(assert (= temp5235_51 #x0000000000000000))
(assert (= var730187 temp5235_51))
(assert (= var730166 var730187))
(assert (= var664598 var730166))
(assert (= temp5235_52 #x0000000000000000))
(assert (= var664598 temp5235_52))
(assert (= temp5235_53 #x0000000000000000))
(assert (= var861259 temp5235_53))
(assert (= var861238 var861259))
(assert (= var664611 var861238))
(assert (= temp5235_54 #x0000000000000000))
(assert (= var664611 temp5235_54))
(assert (= temp5235_55 #x0000000000008000))
(assert (= var1057842 temp5235_55))
(assert (= temp5235_56 #x0000000000040000))
(assert (= var1123378 temp5235_56))
(assert (= temp5235_57 #x0000000000200000))
(assert (= var1188914 temp5235_57))
(assert (= temp5235_58 #x0000000000000001))
(assert (= var78184 temp5235_58))
(assert (= temp5235_60 #x0000000000000001))
(assert (= temp5235_59 temp5235_60))
(assert (= temp5235_62 #x0000000000000001))
(assert (= temp5235_61 temp5235_62))
(model-add temp5235_1 () (_ BitVec 64) #x0000000000000005)
(model-add temp5235_2 () (_ BitVec 64) #x0000000000000001)
(model-add var77740 () (_ BitVec 64) #x0000000000000001)
(model-del k!0)
(model-add ARGNAME_filter_NAMEEND_DIM
           ()
           (_ BitVec 64)
           (ite k!0 #x0000000000000005 (bvnot #x0000000000000005)))


